(set-info :smt-lib-version 2.6)
(set-logic QF_NIA)
(set-info :source |
Generated by: Cristina Borralleras, Daniel Larraz, Albert Oliveras, Enric Rodriguez-Carbonell, Albert Rubio
Generated on: 2017-04-27
Generator: VeryMax
Application: Termination proving
Target solver: barcelogic
|)
(set-info :license "https://creativecommons.org/licenses/by/4.0/")
(set-info :category "industrial")
(set-info :status sat)
(declare-fun Nl5__const_7^01 () Int)
(declare-fun Nl5__const_8^01 () Int)
(declare-fun Nl5x0^01 () Int)
(declare-fun Nl5x1^01 () Int)
(declare-fun Nl5x2^01 () Int)
(declare-fun Nl5x3^01 () Int)
(declare-fun lam0n0 () Int)
(declare-fun lam0n1 () Int)
(declare-fun lam0n2 () Int)
(declare-fun lam0n3 () Int)
(declare-fun lam0n10 () Int)
(declare-fun lam0n11 () Int)
(declare-fun UndefCntr0_CT () Int)
(declare-fun Nl5CT1 () Int)
(declare-fun UndefCntr0___const_7^0 () Int)
(declare-fun lam0n4 () Int)
(declare-fun UndefCntr0___const_8^0 () Int)
(declare-fun lam0n5 () Int)
(declare-fun UndefCntr0_x0^0 () Int)
(declare-fun lam0n6 () Int)
(declare-fun UndefCntr0_x1^0 () Int)
(declare-fun lam0n7 () Int)
(declare-fun UndefCntr0_x2^0 () Int)
(declare-fun UndefCntr0_x3^0 () Int)
(declare-fun lam0n8 () Int)
(declare-fun UndefCntr0_undef73 () Int)
(declare-fun lam0n9 () Int)
(declare-fun UndefCntr0_undef74 () Int)
(declare-fun UndefCntr0_undef75 () Int)
(declare-fun UndefCntr0_undef101 () Int)
(declare-fun UndefCntr0_undef102 () Int)
(declare-fun UndefCntr0_undef103 () Int)
(declare-fun UndefCntr0_undef105 () Int)
(declare-fun lam1n0 () Int)
(declare-fun lam1n1 () Int)
(declare-fun lam1n2 () Int)
(declare-fun lam1n3 () Int)
(declare-fun lam1n10 () Int)
(declare-fun lam1n11 () Int)
(declare-fun lam1n4 () Int)
(declare-fun lam1n5 () Int)
(declare-fun lam1n6 () Int)
(declare-fun lam1n7 () Int)
(declare-fun lam1n8 () Int)
(declare-fun lam1n9 () Int)
(declare-fun lam2n0 () Int)
(declare-fun lam2n1 () Int)
(declare-fun lam2n2 () Int)
(declare-fun lam2n3 () Int)
(declare-fun lam2n4 () Int)
(declare-fun lam2n5 () Int)
(declare-fun lam2n6 () Int)
(declare-fun lam2n7 () Int)
(declare-fun lam2n8 () Int)
(declare-fun lam2n9 () Int)
(declare-fun lam4n0 () Int)
(declare-fun lam4n1 () Int)
(declare-fun lam4n2 () Int)
(declare-fun lam4n3 () Int)
(declare-fun lam5n0 () Int)
(declare-fun lam5n1 () Int)
(declare-fun lam5n2 () Int)
(declare-fun lam5n3 () Int)
(declare-fun lam5n4 () Int)
(declare-fun lam5n5 () Int)
(declare-fun lam6n0 () Int)
(declare-fun lam6n1 () Int)
(declare-fun lam6n2 () Int)
(declare-fun lam6n3 () Int)
(declare-fun lam6n4 () Int)
(declare-fun lam6n5 () Int)
(declare-fun lam6n6 () Int)
(declare-fun lam6n7 () Int)
(declare-fun __const_7^0 () Int)
(declare-fun undef103 () Int)
(declare-fun x0^0 () Int)
(declare-fun undef185 () Int)
(declare-fun x1^0 () Int)
(declare-fun undef186 () Int)
(declare-fun undef101 () Int)
(declare-fun undef115 () Int)
(declare-fun undef102 () Int)
(declare-fun undef116 () Int)
(declare-fun undef143 () Int)
(declare-fun undef144 () Int)
(declare-fun __const_8^0 () Int)
(declare-fun undef105 () Int)
(declare-fun x2^0 () Int)
(declare-fun x3^0 () Int)
(declare-fun FV___const_7^0_1 () Int)
(declare-fun FV___const_8^0_1 () Int)
(declare-fun FV_x0^0_1 () Int)
(declare-fun FV_x1^0_1 () Int)
(declare-fun FV_x2^0_1 () Int)
(declare-fun FV_x3^0_1 () Int)
(declare-fun lam7n0 () Int)
(declare-fun lam7n1 () Int)
(declare-fun lam7n2 () Int)
(declare-fun lam7n3 () Int)
(declare-fun lam8n0 () Int)
(declare-fun lam8n1 () Int)
(declare-fun lam8n2 () Int)
(declare-fun lam8n3 () Int)
(declare-fun UndefDef0undef103_CT () Int)
(declare-fun UndefDef0undef103___const_7^0 () Int)
(declare-fun UndefDef0undef103___const_8^0 () Int)
(declare-fun UndefDef0undef103_x0^0 () Int)
(declare-fun UndefDef0undef103_x1^0 () Int)
(declare-fun UndefDef0undef103_x2^0 () Int)
(declare-fun UndefDef0undef103_x3^0 () Int)
(declare-fun lam9n0 () Int)
(declare-fun lam9n1 () Int)
(declare-fun lam9n2 () Int)
(declare-fun lam9n3 () Int)
(declare-fun UndefDef0undef75_CT () Int)
(declare-fun UndefDef0undef75___const_7^0 () Int)
(declare-fun UndefDef0undef75___const_8^0 () Int)
(declare-fun UndefDef0undef75_x0^0 () Int)
(declare-fun UndefDef0undef75_x1^0 () Int)
(declare-fun UndefDef0undef75_x2^0 () Int)
(declare-fun UndefDef0undef75_x3^0 () Int)
(declare-fun lam10n0 () Int)
(declare-fun lam10n1 () Int)
(declare-fun lam10n2 () Int)
(declare-fun lam10n3 () Int)
(declare-fun lam11n0 () Int)
(declare-fun lam11n1 () Int)
(declare-fun lam11n2 () Int)
(declare-fun lam11n3 () Int)
(declare-fun UndefDef0undef73_CT () Int)
(declare-fun UndefDef0undef73___const_7^0 () Int)
(declare-fun UndefDef0undef73___const_8^0 () Int)
(declare-fun UndefDef0undef73_x0^0 () Int)
(declare-fun UndefDef0undef73_x1^0 () Int)
(declare-fun UndefDef0undef73_x2^0 () Int)
(declare-fun UndefDef0undef73_x3^0 () Int)
(declare-fun lam12n0 () Int)
(declare-fun lam12n1 () Int)
(declare-fun lam12n2 () Int)
(declare-fun lam12n3 () Int)
(declare-fun lam13n0 () Int)
(declare-fun lam13n1 () Int)
(declare-fun lam13n2 () Int)
(declare-fun lam13n3 () Int)
(declare-fun UndefDef0undef74_CT () Int)
(declare-fun UndefDef0undef74___const_7^0 () Int)
(declare-fun UndefDef0undef74___const_8^0 () Int)
(declare-fun UndefDef0undef74_x0^0 () Int)
(declare-fun UndefDef0undef74_x1^0 () Int)
(declare-fun UndefDef0undef74_x2^0 () Int)
(declare-fun UndefDef0undef74_x3^0 () Int)
(declare-fun lam14n0 () Int)
(declare-fun lam14n1 () Int)
(declare-fun lam14n2 () Int)
(declare-fun lam14n3 () Int)
(declare-fun lam15n0 () Int)
(declare-fun lam15n1 () Int)
(declare-fun lam15n2 () Int)
(declare-fun lam15n3 () Int)
(declare-fun lam16n0 () Int)
(declare-fun lam16n1 () Int)
(declare-fun lam16n2 () Int)
(declare-fun lam16n3 () Int)
(declare-fun lam17n0 () Int)
(declare-fun lam17n1 () Int)
(declare-fun lam17n2 () Int)
(declare-fun lam17n3 () Int)
(declare-fun UndefDef0undef101_CT () Int)
(declare-fun UndefDef0undef101___const_7^0 () Int)
(declare-fun UndefDef0undef101___const_8^0 () Int)
(declare-fun UndefDef0undef101_x0^0 () Int)
(declare-fun UndefDef0undef101_x1^0 () Int)
(declare-fun UndefDef0undef101_x2^0 () Int)
(declare-fun UndefDef0undef101_x3^0 () Int)
(declare-fun lam18n0 () Int)
(declare-fun lam18n1 () Int)
(declare-fun lam18n2 () Int)
(declare-fun lam18n3 () Int)
(declare-fun lam19n0 () Int)
(declare-fun lam19n1 () Int)
(declare-fun lam19n2 () Int)
(declare-fun lam19n3 () Int)
(declare-fun UndefDef0undef102_CT () Int)
(declare-fun UndefDef0undef102___const_7^0 () Int)
(declare-fun UndefDef0undef102___const_8^0 () Int)
(declare-fun UndefDef0undef102_x0^0 () Int)
(declare-fun UndefDef0undef102_x1^0 () Int)
(declare-fun UndefDef0undef102_x2^0 () Int)
(declare-fun UndefDef0undef102_x3^0 () Int)
(declare-fun lam20n0 () Int)
(declare-fun lam20n1 () Int)
(declare-fun lam20n2 () Int)
(declare-fun lam20n3 () Int)
(declare-fun lam21n0 () Int)
(declare-fun lam21n1 () Int)
(declare-fun lam21n2 () Int)
(declare-fun lam21n3 () Int)
(declare-fun lam22n0 () Int)
(declare-fun lam22n1 () Int)
(declare-fun lam22n2 () Int)
(declare-fun FV___const_8^0_2 () Int)
(declare-fun FV___const_7^0_2 () Int)
(declare-fun FV_x2^0_2 () Int)
(declare-fun FV_x0^0_2 () Int)
(declare-fun FV_x1^0_2 () Int)
(declare-fun FV_x3^0_2 () Int)
(declare-fun FV_undef103_2 () Int)
(declare-fun FV_undef75_2 () Int)
(declare-fun FV_undef73_2 () Int)
(declare-fun FV_undef74_2 () Int)
(declare-fun FV_undef101_2 () Int)
(declare-fun FV_undef102_2 () Int)
(assert ( and ( <= ( - 1 ) Nl5__const_7^01 ) ( <= Nl5__const_7^01 1 ) ( <= ( - 1 ) Nl5__const_8^01 ) ( <= Nl5__const_8^01 1 ) ( <= ( - 1 ) Nl5x0^01 ) ( <= Nl5x0^01 1 ) ( <= ( - 1 ) Nl5x1^01 ) ( <= Nl5x1^01 1 ) ( <= ( - 1 ) Nl5x2^01 ) ( <= Nl5x2^01 1 ) ( <= ( - 1 ) Nl5x3^01 ) ( <= Nl5x3^01 1 ) ))
(assert ( or ( and ( >= lam0n0 0 ) ( >= lam0n1 0 ) ( >= lam0n2 0 ) ( >= lam0n3 0 ) ( >= lam0n10 0 ) ( >= lam0n11 0 ) ( > ( + ( * 1 lam0n1 ) ( * 1 lam0n2 ) ( * 1 lam0n3 ) ( * UndefCntr0_CT lam0n10 ) ( * Nl5CT1 lam0n11 ) ( - 1 ) ) 0 ) ( = ( + ( * 1 lam0n1 ) ( * 1 lam0n2 ) ( * 1 lam0n3 ) ( * UndefCntr0___const_7^0 lam0n10 ) ( * Nl5__const_7^01 lam0n11 ) ) 0 ) ( = ( + ( * 1 lam0n0 ) ( * 1 lam0n1 ) ( * 1 lam0n4 ) ( * UndefCntr0___const_8^0 lam0n10 ) ( * Nl5__const_8^01 lam0n11 ) ) 0 ) ( = ( + ( * 1 lam0n5 ) ( * UndefCntr0_x0^0 lam0n10 ) ( * Nl5x0^01 lam0n11 ) ) 0 ) ( = ( + ( * 1 lam0n6 ) ( * UndefCntr0_x1^0 lam0n10 ) ( * Nl5x1^01 lam0n11 ) ) 0 ) ( = ( + ( * ( - 1 ) lam0n1 ) ( * ( - 1 ) lam0n2 ) ( * 1 lam0n7 ) ( * UndefCntr0_x2^0 lam0n10 ) ( * Nl5x2^01 lam0n11 ) ) 0 ) ( = ( + ( * UndefCntr0_x3^0 lam0n10 ) ( * Nl5x3^01 lam0n11 ) ) 0 ) ( = ( + ( * ( - 1 ) lam0n5 ) ( * 1 lam0n8 ) ( * UndefCntr0_undef73 lam0n10 ) ) 0 ) ( = ( + ( * ( - 1 ) lam0n6 ) ( * 1 lam0n9 ) ( * UndefCntr0_undef74 lam0n10 ) ) 0 ) ( = ( + ( * ( - 1 ) lam0n4 ) ( * ( - 1 ) lam0n7 ) ( * UndefCntr0_undef75 lam0n10 ) ) 0 ) ( = ( + ( * ( - 1 ) lam0n8 ) ( * UndefCntr0_undef101 lam0n10 ) ) 0 ) ( = ( + ( * ( - 1 ) lam0n9 ) ( * UndefCntr0_undef102 lam0n10 ) ) 0 ) ( = ( + ( * ( - 1 ) lam0n3 ) ( * 1 lam0n4 ) ( * UndefCntr0_undef103 lam0n10 ) ) 0 ) ( = ( * UndefCntr0_undef105 lam0n10 ) 0 ) ) ( and ( >= lam1n0 0 ) ( >= lam1n1 0 ) ( >= lam1n2 0 ) ( >= lam1n3 0 ) ( >= lam1n10 0 ) ( >= lam1n11 0 ) ( > ( + ( * 1 lam1n1 ) ( * 1 lam1n2 ) ( * 1 lam1n3 ) ( * UndefCntr0_CT lam1n10 ) ( * Nl5CT1 lam1n11 ) ( - 1 ( + ( + ( + ( + Nl5CT1 ( * Nl5x0^01 0 ) ) ( * Nl5x1^01 0 ) ) ( * Nl5x2^01 0 ) ) ( * Nl5x3^01 0 ) ) ) ) 0 ) ( = ( + ( * 1 lam1n1 ) ( * 1 lam1n2 ) ( * 1 lam1n3 ) ( * UndefCntr0___const_7^0 lam1n10 ) ( * Nl5__const_7^01 lam1n11 ) ( - ( + 0 Nl5__const_7^01 ) ) ) 0 ) ( = ( + ( * 1 lam1n0 ) ( * 1 lam1n1 ) ( * 1 lam1n4 ) ( * UndefCntr0___const_8^0 lam1n10 ) ( * Nl5__const_8^01 lam1n11 ) ( - ( + 0 Nl5__const_8^01 ) ) ) 0 ) ( = ( + ( * 1 lam1n5 ) ( * UndefCntr0_x0^0 lam1n10 ) ( * Nl5x0^01 lam1n11 ) ) 0 ) ( = ( + ( * 1 lam1n6 ) ( * UndefCntr0_x1^0 lam1n10 ) ( * Nl5x1^01 lam1n11 ) ) 0 ) ( = ( + ( * ( - 1 ) lam1n1 ) ( * ( - 1 ) lam1n2 ) ( * 1 lam1n7 ) ( * UndefCntr0_x2^0 lam1n10 ) ( * Nl5x2^01 lam1n11 ) ) 0 ) ( = ( + ( * UndefCntr0_x3^0 lam1n10 ) ( * Nl5x3^01 lam1n11 ) ) 0 ) ( = ( + ( * ( - 1 ) lam1n5 ) ( * 1 lam1n8 ) ( * UndefCntr0_undef73 lam1n10 ) ) 0 ) ( = ( + ( * ( - 1 ) lam1n6 ) ( * 1 lam1n9 ) ( * UndefCntr0_undef74 lam1n10 ) ) 0 ) ( = ( + ( * ( - 1 ) lam1n4 ) ( * ( - 1 ) lam1n7 ) ( * UndefCntr0_undef75 lam1n10 ) ) 0 ) ( = ( + ( * ( - 1 ) lam1n8 ) ( * UndefCntr0_undef101 lam1n10 ) ( - ( + 0 ( * Nl5x0^01 1 ) ) ) ) 0 ) ( = ( + ( * ( - 1 ) lam1n9 ) ( * UndefCntr0_undef102 lam1n10 ) ( - ( + 0 ( * Nl5x1^01 1 ) ) ) ) 0 ) ( = ( + ( * ( - 1 ) lam1n3 ) ( * 1 lam1n4 ) ( * UndefCntr0_undef103 lam1n10 ) ( - ( + 0 ( * Nl5x2^01 1 ) ) ) ) 0 ) ( = ( + ( * UndefCntr0_undef105 lam1n10 ) ( - ( + 0 ( * Nl5x3^01 1 ) ) ) ) 0 ) ) ))
(assert ( and ( <= ( + Nl5CT1 ( * Nl5__const_7^01 FV___const_7^0_1 ) ( * Nl5__const_8^01 FV___const_8^0_1 ) ( * Nl5x0^01 FV_x0^0_1 ) ( * Nl5x1^01 FV_x1^0_1 ) ( * Nl5x2^01 FV_x2^0_1 ) ( * Nl5x3^01 FV_x3^0_1 ) ) 0 ) ( <= ( + 1 FV___const_7^0_1 ( * ( - 1 ) FV_x2^0_1 ) ) 0 ) ))
(assert ( or ( not ( = UndefCntr0___const_7^0 0 ) ) ( not ( = UndefCntr0___const_8^0 0 ) ) ( not ( = UndefCntr0_x0^0 0 ) ) ( not ( = UndefCntr0_x1^0 0 ) ) ( not ( = UndefCntr0_x2^0 0 ) ) ( not ( = UndefCntr0_x3^0 0 ) ) ( not ( = UndefCntr0_undef73 0 ) ) ( not ( = UndefCntr0_undef74 0 ) ) ( not ( = UndefCntr0_undef75 0 ) ) ( not ( = UndefCntr0_undef101 0 ) ) ( not ( = UndefCntr0_undef102 0 ) ) ( not ( = UndefCntr0_undef103 0 ) ) ( not ( = UndefCntr0_undef105 0 ) ) ( = UndefCntr0_CT 0 ) ))
(assert ( or ( and ( = UndefCntr0___const_7^0 0 ) ( = UndefCntr0___const_8^0 0 ) ( = UndefCntr0_x0^0 0 ) ( = UndefCntr0_x1^0 0 ) ( = UndefCntr0_x2^0 0 ) ( = UndefCntr0_x3^0 0 ) ) ( or ( not ( = UndefCntr0_undef73 0 ) ) ( not ( = UndefCntr0_undef74 0 ) ) ( not ( = UndefCntr0_undef75 0 ) ) ( not ( = UndefCntr0_undef101 0 ) ) ( not ( = UndefCntr0_undef102 0 ) ) ( not ( = UndefCntr0_undef103 0 ) ) ( not ( = UndefCntr0_undef105 0 ) ) ) ))
(assert ( or ( and ( >= lam7n0 0 ) ( >= lam7n1 0 ) ( >= lam7n2 0 ) ( >= lam7n3 0 ) ( > ( + ( * 1 lam7n1 ) ( * 1 lam7n2 ) ( * Nl5CT1 lam7n3 ) ( - 1 ) ) 0 ) ( = ( + ( * 1 lam7n1 ) ( * 1 lam7n2 ) ( * Nl5__const_7^01 lam7n3 ) ) 0 ) ( = ( + ( * 1 lam7n0 ) ( * 1 lam7n1 ) ( * Nl5__const_8^01 lam7n3 ) ) 0 ) ( = ( * Nl5x0^01 lam7n3 ) 0 ) ( = ( * Nl5x1^01 lam7n3 ) 0 ) ( = ( + ( * ( - 1 ) lam7n1 ) ( * ( - 1 ) lam7n2 ) ( * Nl5x2^01 lam7n3 ) ) 0 ) ( = ( * Nl5x3^01 lam7n3 ) 0 ) ) ( and ( and ( >= lam8n0 0 ) ( >= lam8n1 0 ) ( >= lam8n2 0 ) ( >= lam8n3 0 ) ( > ( + ( * 1 lam8n1 ) ( * 1 lam8n2 ) ( * Nl5CT1 lam8n3 ) ( - 1 ( + ( + 1 0 ) ( * ( - 1 ) UndefDef0undef103_CT ) ) ) ) 0 ) ( = ( + ( * 1 lam8n1 ) ( * 1 lam8n2 ) ( * Nl5__const_7^01 lam8n3 ) ( - ( + 1 ( * UndefDef0undef103___const_7^0 ( - 1 ) ) ) ) ) 0 ) ( = ( + ( * 1 lam8n0 ) ( * 1 lam8n1 ) ( * Nl5__const_8^01 lam8n3 ) ( - ( * UndefDef0undef103___const_8^0 ( - 1 ) ) ) ) 0 ) ( = ( + ( * Nl5x0^01 lam8n3 ) ( - ( * UndefDef0undef103_x0^0 ( - 1 ) ) ) ) 0 ) ( = ( + ( * Nl5x1^01 lam8n3 ) ( - ( * UndefDef0undef103_x1^0 ( - 1 ) ) ) ) 0 ) ( = ( + ( * ( - 1 ) lam8n1 ) ( * ( - 1 ) lam8n2 ) ( * Nl5x2^01 lam8n3 ) ( - ( * UndefDef0undef103_x2^0 ( - 1 ) ) ) ) 0 ) ( = ( + ( * Nl5x3^01 lam8n3 ) ( - ( * UndefDef0undef103_x3^0 ( - 1 ) ) ) ) 0 ) ) ( and ( >= lam9n0 0 ) ( >= lam9n1 0 ) ( >= lam9n2 0 ) ( >= lam9n3 0 ) ( > ( + ( * 1 lam9n1 ) ( * 1 lam9n2 ) ( * Nl5CT1 lam9n3 ) ( - 1 ( + ( + ( + 0 0 ) ( * ( - 1 ) UndefDef0undef75_CT ) ) ( * 1 UndefDef0undef103_CT ) ) ) ) 0 ) ( = ( + ( * 1 lam9n1 ) ( * 1 lam9n2 ) ( * Nl5__const_7^01 lam9n3 ) ( - ( + ( * UndefDef0undef75___const_7^0 ( - 1 ) ) ( * UndefDef0undef103___const_7^0 1 ) ) ) ) 0 ) ( = ( + ( * 1 lam9n0 ) ( * 1 lam9n1 ) ( * Nl5__const_8^01 lam9n3 ) ( - ( + ( + 1 ( * UndefDef0undef75___const_8^0 ( - 1 ) ) ) ( * UndefDef0undef103___const_8^0 1 ) ) ) ) 0 ) ( = ( + ( * Nl5x0^01 lam9n3 ) ( - ( + ( * UndefDef0undef75_x0^0 ( - 1 ) ) ( * UndefDef0undef103_x0^0 1 ) ) ) ) 0 ) ( = ( + ( * Nl5x1^01 lam9n3 ) ( - ( + ( * UndefDef0undef75_x1^0 ( - 1 ) ) ( * UndefDef0undef103_x1^0 1 ) ) ) ) 0 ) ( = ( + ( * ( - 1 ) lam9n1 ) ( * ( - 1 ) lam9n2 ) ( * Nl5x2^01 lam9n3 ) ( - ( + ( * UndefDef0undef75_x2^0 ( - 1 ) ) ( * UndefDef0undef103_x2^0 1 ) ) ) ) 0 ) ( = ( + ( * Nl5x3^01 lam9n3 ) ( - ( + ( * UndefDef0undef75_x3^0 ( - 1 ) ) ( * UndefDef0undef103_x3^0 1 ) ) ) ) 0 ) ) ( and ( >= lam10n0 0 ) ( >= lam10n1 0 ) ( >= lam10n2 0 ) ( >= lam10n3 0 ) ( > ( + ( * 1 lam10n1 ) ( * 1 lam10n2 ) ( * Nl5CT1 lam10n3 ) ( - 1 ( - ( + ( + ( + 0 0 ) ( * ( - 1 ) UndefDef0undef75_CT ) ) ( * 1 UndefDef0undef103_CT ) ) ) ) ) 0 ) ( = ( + ( * 1 lam10n1 ) ( * 1 lam10n2 ) ( * Nl5__const_7^01 lam10n3 ) ( - ( - ( + ( * UndefDef0undef75___const_7^0 ( - 1 ) ) ( * UndefDef0undef103___const_7^0 1 ) ) ) ) ) 0 ) ( = ( + ( * 1 lam10n0 ) ( * 1 lam10n1 ) ( * Nl5__const_8^01 lam10n3 ) ( - ( - ( + ( + 1 ( * UndefDef0undef75___const_8^0 ( - 1 ) ) ) ( * UndefDef0undef103___const_8^0 1 ) ) ) ) ) 0 ) ( = ( + ( * Nl5x0^01 lam10n3 ) ( - ( - ( + ( * UndefDef0undef75_x0^0 ( - 1 ) ) ( * UndefDef0undef103_x0^0 1 ) ) ) ) ) 0 ) ( = ( + ( * Nl5x1^01 lam10n3 ) ( - ( - ( + ( * UndefDef0undef75_x1^0 ( - 1 ) ) ( * UndefDef0undef103_x1^0 1 ) ) ) ) ) 0 ) ( = ( + ( * ( - 1 ) lam10n1 ) ( * ( - 1 ) lam10n2 ) ( * Nl5x2^01 lam10n3 ) ( - ( - ( + ( * UndefDef0undef75_x2^0 ( - 1 ) ) ( * UndefDef0undef103_x2^0 1 ) ) ) ) ) 0 ) ( = ( + ( * Nl5x3^01 lam10n3 ) ( - ( - ( + ( * UndefDef0undef75_x3^0 ( - 1 ) ) ( * UndefDef0undef103_x3^0 1 ) ) ) ) ) 0 ) ) ( and ( >= lam11n0 0 ) ( >= lam11n1 0 ) ( >= lam11n2 0 ) ( >= lam11n3 0 ) ( > ( + ( * 1 lam11n1 ) ( * 1 lam11n2 ) ( * Nl5CT1 lam11n3 ) ( - 1 ( + ( + 0 0 ) ( * ( - 1 ) UndefDef0undef73_CT ) ) ) ) 0 ) ( = ( + ( * 1 lam11n1 ) ( * 1 lam11n2 ) ( * Nl5__const_7^01 lam11n3 ) ( - ( * UndefDef0undef73___const_7^0 ( - 1 ) ) ) ) 0 ) ( = ( + ( * 1 lam11n0 ) ( * 1 lam11n1 ) ( * Nl5__const_8^01 lam11n3 ) ( - ( * UndefDef0undef73___const_8^0 ( - 1 ) ) ) ) 0 ) ( = ( + ( * Nl5x0^01 lam11n3 ) ( - ( + 1 ( * UndefDef0undef73_x0^0 ( - 1 ) ) ) ) ) 0 ) ( = ( + ( * Nl5x1^01 lam11n3 ) ( - ( * UndefDef0undef73_x1^0 ( - 1 ) ) ) ) 0 ) ( = ( + ( * ( - 1 ) lam11n1 ) ( * ( - 1 ) lam11n2 ) ( * Nl5x2^01 lam11n3 ) ( - ( * UndefDef0undef73_x2^0 ( - 1 ) ) ) ) 0 ) ( = ( + ( * Nl5x3^01 lam11n3 ) ( - ( * UndefDef0undef73_x3^0 ( - 1 ) ) ) ) 0 ) ) ( and ( >= lam12n0 0 ) ( >= lam12n1 0 ) ( >= lam12n2 0 ) ( >= lam12n3 0 ) ( > ( + ( * 1 lam12n1 ) ( * 1 lam12n2 ) ( * Nl5CT1 lam12n3 ) ( - 1 ( - ( + ( + 0 0 ) ( * ( - 1 ) UndefDef0undef73_CT ) ) ) ) ) 0 ) ( = ( + ( * 1 lam12n1 ) ( * 1 lam12n2 ) ( * Nl5__const_7^01 lam12n3 ) ( - ( - ( * UndefDef0undef73___const_7^0 ( - 1 ) ) ) ) ) 0 ) ( = ( + ( * 1 lam12n0 ) ( * 1 lam12n1 ) ( * Nl5__const_8^01 lam12n3 ) ( - ( - ( * UndefDef0undef73___const_8^0 ( - 1 ) ) ) ) ) 0 ) ( = ( + ( * Nl5x0^01 lam12n3 ) ( - ( - ( + 1 ( * UndefDef0undef73_x0^0 ( - 1 ) ) ) ) ) ) 0 ) ( = ( + ( * Nl5x1^01 lam12n3 ) ( - ( - ( * UndefDef0undef73_x1^0 ( - 1 ) ) ) ) ) 0 ) ( = ( + ( * ( - 1 ) lam12n1 ) ( * ( - 1 ) lam12n2 ) ( * Nl5x2^01 lam12n3 ) ( - ( - ( * UndefDef0undef73_x2^0 ( - 1 ) ) ) ) ) 0 ) ( = ( + ( * Nl5x3^01 lam12n3 ) ( - ( - ( * UndefDef0undef73_x3^0 ( - 1 ) ) ) ) ) 0 ) ) ( and ( >= lam13n0 0 ) ( >= lam13n1 0 ) ( >= lam13n2 0 ) ( >= lam13n3 0 ) ( > ( + ( * 1 lam13n1 ) ( * 1 lam13n2 ) ( * Nl5CT1 lam13n3 ) ( - 1 ( + ( + 0 0 ) ( * ( - 1 ) UndefDef0undef74_CT ) ) ) ) 0 ) ( = ( + ( * 1 lam13n1 ) ( * 1 lam13n2 ) ( * Nl5__const_7^01 lam13n3 ) ( - ( * UndefDef0undef74___const_7^0 ( - 1 ) ) ) ) 0 ) ( = ( + ( * 1 lam13n0 ) ( * 1 lam13n1 ) ( * Nl5__const_8^01 lam13n3 ) ( - ( * UndefDef0undef74___const_8^0 ( - 1 ) ) ) ) 0 ) ( = ( + ( * Nl5x0^01 lam13n3 ) ( - ( * UndefDef0undef74_x0^0 ( - 1 ) ) ) ) 0 ) ( = ( + ( * Nl5x1^01 lam13n3 ) ( - ( + 1 ( * UndefDef0undef74_x1^0 ( - 1 ) ) ) ) ) 0 ) ( = ( + ( * ( - 1 ) lam13n1 ) ( * ( - 1 ) lam13n2 ) ( * Nl5x2^01 lam13n3 ) ( - ( * UndefDef0undef74_x2^0 ( - 1 ) ) ) ) 0 ) ( = ( + ( * Nl5x3^01 lam13n3 ) ( - ( * UndefDef0undef74_x3^0 ( - 1 ) ) ) ) 0 ) ) ( and ( >= lam14n0 0 ) ( >= lam14n1 0 ) ( >= lam14n2 0 ) ( >= lam14n3 0 ) ( > ( + ( * 1 lam14n1 ) ( * 1 lam14n2 ) ( * Nl5CT1 lam14n3 ) ( - 1 ( - ( + ( + 0 0 ) ( * ( - 1 ) UndefDef0undef74_CT ) ) ) ) ) 0 ) ( = ( + ( * 1 lam14n1 ) ( * 1 lam14n2 ) ( * Nl5__const_7^01 lam14n3 ) ( - ( - ( * UndefDef0undef74___const_7^0 ( - 1 ) ) ) ) ) 0 ) ( = ( + ( * 1 lam14n0 ) ( * 1 lam14n1 ) ( * Nl5__const_8^01 lam14n3 ) ( - ( - ( * UndefDef0undef74___const_8^0 ( - 1 ) ) ) ) ) 0 ) ( = ( + ( * Nl5x0^01 lam14n3 ) ( - ( - ( * UndefDef0undef74_x0^0 ( - 1 ) ) ) ) ) 0 ) ( = ( + ( * Nl5x1^01 lam14n3 ) ( - ( - ( + 1 ( * UndefDef0undef74_x1^0 ( - 1 ) ) ) ) ) ) 0 ) ( = ( + ( * ( - 1 ) lam14n1 ) ( * ( - 1 ) lam14n2 ) ( * Nl5x2^01 lam14n3 ) ( - ( - ( * UndefDef0undef74_x2^0 ( - 1 ) ) ) ) ) 0 ) ( = ( + ( * Nl5x3^01 lam14n3 ) ( - ( - ( * UndefDef0undef74_x3^0 ( - 1 ) ) ) ) ) 0 ) ) ( and ( >= lam15n0 0 ) ( >= lam15n1 0 ) ( >= lam15n2 0 ) ( >= lam15n3 0 ) ( > ( + ( * 1 lam15n1 ) ( * 1 lam15n2 ) ( * Nl5CT1 lam15n3 ) ( - 1 ( + ( + 0 0 ) ( * ( - 1 ) UndefDef0undef75_CT ) ) ) ) 0 ) ( = ( + ( * 1 lam15n1 ) ( * 1 lam15n2 ) ( * Nl5__const_7^01 lam15n3 ) ( - ( * UndefDef0undef75___const_7^0 ( - 1 ) ) ) ) 0 ) ( = ( + ( * 1 lam15n0 ) ( * 1 lam15n1 ) ( * Nl5__const_8^01 lam15n3 ) ( - ( * UndefDef0undef75___const_8^0 ( - 1 ) ) ) ) 0 ) ( = ( + ( * Nl5x0^01 lam15n3 ) ( - ( * UndefDef0undef75_x0^0 ( - 1 ) ) ) ) 0 ) ( = ( + ( * Nl5x1^01 lam15n3 ) ( - ( * UndefDef0undef75_x1^0 ( - 1 ) ) ) ) 0 ) ( = ( + ( * ( - 1 ) lam15n1 ) ( * ( - 1 ) lam15n2 ) ( * Nl5x2^01 lam15n3 ) ( - ( + 1 ( * UndefDef0undef75_x2^0 ( - 1 ) ) ) ) ) 0 ) ( = ( + ( * Nl5x3^01 lam15n3 ) ( - ( * UndefDef0undef75_x3^0 ( - 1 ) ) ) ) 0 ) ) ( and ( >= lam16n0 0 ) ( >= lam16n1 0 ) ( >= lam16n2 0 ) ( >= lam16n3 0 ) ( > ( + ( * 1 lam16n1 ) ( * 1 lam16n2 ) ( * Nl5CT1 lam16n3 ) ( - 1 ( - ( + ( + 0 0 ) ( * ( - 1 ) UndefDef0undef75_CT ) ) ) ) ) 0 ) ( = ( + ( * 1 lam16n1 ) ( * 1 lam16n2 ) ( * Nl5__const_7^01 lam16n3 ) ( - ( - ( * UndefDef0undef75___const_7^0 ( - 1 ) ) ) ) ) 0 ) ( = ( + ( * 1 lam16n0 ) ( * 1 lam16n1 ) ( * Nl5__const_8^01 lam16n3 ) ( - ( - ( * UndefDef0undef75___const_8^0 ( - 1 ) ) ) ) ) 0 ) ( = ( + ( * Nl5x0^01 lam16n3 ) ( - ( - ( * UndefDef0undef75_x0^0 ( - 1 ) ) ) ) ) 0 ) ( = ( + ( * Nl5x1^01 lam16n3 ) ( - ( - ( * UndefDef0undef75_x1^0 ( - 1 ) ) ) ) ) 0 ) ( = ( + ( * ( - 1 ) lam16n1 ) ( * ( - 1 ) lam16n2 ) ( * Nl5x2^01 lam16n3 ) ( - ( - ( + 1 ( * UndefDef0undef75_x2^0 ( - 1 ) ) ) ) ) ) 0 ) ( = ( + ( * Nl5x3^01 lam16n3 ) ( - ( - ( * UndefDef0undef75_x3^0 ( - 1 ) ) ) ) ) 0 ) ) ( and ( >= lam17n0 0 ) ( >= lam17n1 0 ) ( >= lam17n2 0 ) ( >= lam17n3 0 ) ( > ( + ( * 1 lam17n1 ) ( * 1 lam17n2 ) ( * Nl5CT1 lam17n3 ) ( - 1 ( + ( + 0 ( * 1 UndefDef0undef73_CT ) ) ( * ( - 1 ) UndefDef0undef101_CT ) ) ) ) 0 ) ( = ( + ( * 1 lam17n1 ) ( * 1 lam17n2 ) ( * Nl5__const_7^01 lam17n3 ) ( - ( + ( * UndefDef0undef73___const_7^0 1 ) ( * UndefDef0undef101___const_7^0 ( - 1 ) ) ) ) ) 0 ) ( = ( + ( * 1 lam17n0 ) ( * 1 lam17n1 ) ( * Nl5__const_8^01 lam17n3 ) ( - ( + ( * UndefDef0undef73___const_8^0 1 ) ( * UndefDef0undef101___const_8^0 ( - 1 ) ) ) ) ) 0 ) ( = ( + ( * Nl5x0^01 lam17n3 ) ( - ( + ( * UndefDef0undef73_x0^0 1 ) ( * UndefDef0undef101_x0^0 ( - 1 ) ) ) ) ) 0 ) ( = ( + ( * Nl5x1^01 lam17n3 ) ( - ( + ( * UndefDef0undef73_x1^0 1 ) ( * UndefDef0undef101_x1^0 ( - 1 ) ) ) ) ) 0 ) ( = ( + ( * ( - 1 ) lam17n1 ) ( * ( - 1 ) lam17n2 ) ( * Nl5x2^01 lam17n3 ) ( - ( + ( * UndefDef0undef73_x2^0 1 ) ( * UndefDef0undef101_x2^0 ( - 1 ) ) ) ) ) 0 ) ( = ( + ( * Nl5x3^01 lam17n3 ) ( - ( + ( * UndefDef0undef73_x3^0 1 ) ( * UndefDef0undef101_x3^0 ( - 1 ) ) ) ) ) 0 ) ) ( and ( >= lam18n0 0 ) ( >= lam18n1 0 ) ( >= lam18n2 0 ) ( >= lam18n3 0 ) ( > ( + ( * 1 lam18n1 ) ( * 1 lam18n2 ) ( * Nl5CT1 lam18n3 ) ( - 1 ( - ( + ( + 0 ( * 1 UndefDef0undef73_CT ) ) ( * ( - 1 ) UndefDef0undef101_CT ) ) ) ) ) 0 ) ( = ( + ( * 1 lam18n1 ) ( * 1 lam18n2 ) ( * Nl5__const_7^01 lam18n3 ) ( - ( - ( + ( * UndefDef0undef73___const_7^0 1 ) ( * UndefDef0undef101___const_7^0 ( - 1 ) ) ) ) ) ) 0 ) ( = ( + ( * 1 lam18n0 ) ( * 1 lam18n1 ) ( * Nl5__const_8^01 lam18n3 ) ( - ( - ( + ( * UndefDef0undef73___const_8^0 1 ) ( * UndefDef0undef101___const_8^0 ( - 1 ) ) ) ) ) ) 0 ) ( = ( + ( * Nl5x0^01 lam18n3 ) ( - ( - ( + ( * UndefDef0undef73_x0^0 1 ) ( * UndefDef0undef101_x0^0 ( - 1 ) ) ) ) ) ) 0 ) ( = ( + ( * Nl5x1^01 lam18n3 ) ( - ( - ( + ( * UndefDef0undef73_x1^0 1 ) ( * UndefDef0undef101_x1^0 ( - 1 ) ) ) ) ) ) 0 ) ( = ( + ( * ( - 1 ) lam18n1 ) ( * ( - 1 ) lam18n2 ) ( * Nl5x2^01 lam18n3 ) ( - ( - ( + ( * UndefDef0undef73_x2^0 1 ) ( * UndefDef0undef101_x2^0 ( - 1 ) ) ) ) ) ) 0 ) ( = ( + ( * Nl5x3^01 lam18n3 ) ( - ( - ( + ( * UndefDef0undef73_x3^0 1 ) ( * UndefDef0undef101_x3^0 ( - 1 ) ) ) ) ) ) 0 ) ) ( and ( >= lam19n0 0 ) ( >= lam19n1 0 ) ( >= lam19n2 0 ) ( >= lam19n3 0 ) ( > ( + ( * 1 lam19n1 ) ( * 1 lam19n2 ) ( * Nl5CT1 lam19n3 ) ( - 1 ( + ( + 0 ( * 1 UndefDef0undef74_CT ) ) ( * ( - 1 ) UndefDef0undef102_CT ) ) ) ) 0 ) ( = ( + ( * 1 lam19n1 ) ( * 1 lam19n2 ) ( * Nl5__const_7^01 lam19n3 ) ( - ( + ( * UndefDef0undef74___const_7^0 1 ) ( * UndefDef0undef102___const_7^0 ( - 1 ) ) ) ) ) 0 ) ( = ( + ( * 1 lam19n0 ) ( * 1 lam19n1 ) ( * Nl5__const_8^01 lam19n3 ) ( - ( + ( * UndefDef0undef74___const_8^0 1 ) ( * UndefDef0undef102___const_8^0 ( - 1 ) ) ) ) ) 0 ) ( = ( + ( * Nl5x0^01 lam19n3 ) ( - ( + ( * UndefDef0undef74_x0^0 1 ) ( * UndefDef0undef102_x0^0 ( - 1 ) ) ) ) ) 0 ) ( = ( + ( * Nl5x1^01 lam19n3 ) ( - ( + ( * UndefDef0undef74_x1^0 1 ) ( * UndefDef0undef102_x1^0 ( - 1 ) ) ) ) ) 0 ) ( = ( + ( * ( - 1 ) lam19n1 ) ( * ( - 1 ) lam19n2 ) ( * Nl5x2^01 lam19n3 ) ( - ( + ( * UndefDef0undef74_x2^0 1 ) ( * UndefDef0undef102_x2^0 ( - 1 ) ) ) ) ) 0 ) ( = ( + ( * Nl5x3^01 lam19n3 ) ( - ( + ( * UndefDef0undef74_x3^0 1 ) ( * UndefDef0undef102_x3^0 ( - 1 ) ) ) ) ) 0 ) ) ( and ( >= lam20n0 0 ) ( >= lam20n1 0 ) ( >= lam20n2 0 ) ( >= lam20n3 0 ) ( > ( + ( * 1 lam20n1 ) ( * 1 lam20n2 ) ( * Nl5CT1 lam20n3 ) ( - 1 ( - ( + ( + 0 ( * 1 UndefDef0undef74_CT ) ) ( * ( - 1 ) UndefDef0undef102_CT ) ) ) ) ) 0 ) ( = ( + ( * 1 lam20n1 ) ( * 1 lam20n2 ) ( * Nl5__const_7^01 lam20n3 ) ( - ( - ( + ( * UndefDef0undef74___const_7^0 1 ) ( * UndefDef0undef102___const_7^0 ( - 1 ) ) ) ) ) ) 0 ) ( = ( + ( * 1 lam20n0 ) ( * 1 lam20n1 ) ( * Nl5__const_8^01 lam20n3 ) ( - ( - ( + ( * UndefDef0undef74___const_8^0 1 ) ( * UndefDef0undef102___const_8^0 ( - 1 ) ) ) ) ) ) 0 ) ( = ( + ( * Nl5x0^01 lam20n3 ) ( - ( - ( + ( * UndefDef0undef74_x0^0 1 ) ( * UndefDef0undef102_x0^0 ( - 1 ) ) ) ) ) ) 0 ) ( = ( + ( * Nl5x1^01 lam20n3 ) ( - ( - ( + ( * UndefDef0undef74_x1^0 1 ) ( * UndefDef0undef102_x1^0 ( - 1 ) ) ) ) ) ) 0 ) ( = ( + ( * ( - 1 ) lam20n1 ) ( * ( - 1 ) lam20n2 ) ( * Nl5x2^01 lam20n3 ) ( - ( - ( + ( * UndefDef0undef74_x2^0 1 ) ( * UndefDef0undef102_x2^0 ( - 1 ) ) ) ) ) ) 0 ) ( = ( + ( * Nl5x3^01 lam20n3 ) ( - ( - ( + ( * UndefDef0undef74_x3^0 1 ) ( * UndefDef0undef102_x3^0 ( - 1 ) ) ) ) ) ) 0 ) ) ( or ( and ( = UndefCntr0_undef73 0 ) ( = UndefCntr0_undef74 0 ) ( = UndefCntr0_undef75 0 ) ( = UndefCntr0_undef101 0 ) ( = UndefCntr0_undef102 0 ) ( = UndefCntr0_undef103 0 ) ) ( and ( >= lam21n0 0 ) ( >= lam21n1 0 ) ( >= lam21n2 0 ) ( >= lam21n3 0 ) ( > ( + ( * 1 lam21n1 ) ( * 1 lam21n2 ) ( * Nl5CT1 lam21n3 ) ( - 1 ( + ( + ( + ( + ( + ( + ( + ( + ( + ( + ( + ( + ( + UndefCntr0_CT 0 ) 0 ) 0 ) 0 ) 0 ) 0 ) ( * UndefCntr0_undef73 UndefDef0undef73_CT ) ) ( * UndefCntr0_undef74 UndefDef0undef74_CT ) ) ( * UndefCntr0_undef75 UndefDef0undef75_CT ) ) ( * UndefCntr0_undef101 UndefDef0undef101_CT ) ) ( * UndefCntr0_undef102 UndefDef0undef102_CT ) ) ( * UndefCntr0_undef103 UndefDef0undef103_CT ) ) 0 ) ) ) 0 ) ( = ( + ( * 1 lam21n1 ) ( * 1 lam21n2 ) ( * Nl5__const_7^01 lam21n3 ) ( - ( + ( + ( + ( + ( + ( + UndefCntr0___const_7^0 ( * UndefDef0undef73___const_7^0 UndefCntr0_undef73 ) ) ( * UndefDef0undef74___const_7^0 UndefCntr0_undef74 ) ) ( * UndefDef0undef75___const_7^0 UndefCntr0_undef75 ) ) ( * UndefDef0undef101___const_7^0 UndefCntr0_undef101 ) ) ( * UndefDef0undef102___const_7^0 UndefCntr0_undef102 ) ) ( * UndefDef0undef103___const_7^0 UndefCntr0_undef103 ) ) ) ) 0 ) ( = ( + ( * 1 lam21n0 ) ( * 1 lam21n1 ) ( * Nl5__const_8^01 lam21n3 ) ( - ( + ( + ( + ( + ( + ( + UndefCntr0___const_8^0 ( * UndefDef0undef73___const_8^0 UndefCntr0_undef73 ) ) ( * UndefDef0undef74___const_8^0 UndefCntr0_undef74 ) ) ( * UndefDef0undef75___const_8^0 UndefCntr0_undef75 ) ) ( * UndefDef0undef101___const_8^0 UndefCntr0_undef101 ) ) ( * UndefDef0undef102___const_8^0 UndefCntr0_undef102 ) ) ( * UndefDef0undef103___const_8^0 UndefCntr0_undef103 ) ) ) ) 0 ) ( = ( + ( * Nl5x0^01 lam21n3 ) ( - ( + ( + ( + ( + ( + ( + UndefCntr0_x0^0 ( * UndefDef0undef73_x0^0 UndefCntr0_undef73 ) ) ( * UndefDef0undef74_x0^0 UndefCntr0_undef74 ) ) ( * UndefDef0undef75_x0^0 UndefCntr0_undef75 ) ) ( * UndefDef0undef101_x0^0 UndefCntr0_undef101 ) ) ( * UndefDef0undef102_x0^0 UndefCntr0_undef102 ) ) ( * UndefDef0undef103_x0^0 UndefCntr0_undef103 ) ) ) ) 0 ) ( = ( + ( * Nl5x1^01 lam21n3 ) ( - ( + ( + ( + ( + ( + ( + UndefCntr0_x1^0 ( * UndefDef0undef73_x1^0 UndefCntr0_undef73 ) ) ( * UndefDef0undef74_x1^0 UndefCntr0_undef74 ) ) ( * UndefDef0undef75_x1^0 UndefCntr0_undef75 ) ) ( * UndefDef0undef101_x1^0 UndefCntr0_undef101 ) ) ( * UndefDef0undef102_x1^0 UndefCntr0_undef102 ) ) ( * UndefDef0undef103_x1^0 UndefCntr0_undef103 ) ) ) ) 0 ) ( = ( + ( * ( - 1 ) lam21n1 ) ( * ( - 1 ) lam21n2 ) ( * Nl5x2^01 lam21n3 ) ( - ( + ( + ( + ( + ( + ( + UndefCntr0_x2^0 ( * UndefDef0undef73_x2^0 UndefCntr0_undef73 ) ) ( * UndefDef0undef74_x2^0 UndefCntr0_undef74 ) ) ( * UndefDef0undef75_x2^0 UndefCntr0_undef75 ) ) ( * UndefDef0undef101_x2^0 UndefCntr0_undef101 ) ) ( * UndefDef0undef102_x2^0 UndefCntr0_undef102 ) ) ( * UndefDef0undef103_x2^0 UndefCntr0_undef103 ) ) ) ) 0 ) ( = ( + ( * Nl5x3^01 lam21n3 ) ( - ( + ( + ( + ( + ( + ( + UndefCntr0_x3^0 ( * UndefDef0undef73_x3^0 UndefCntr0_undef73 ) ) ( * UndefDef0undef74_x3^0 UndefCntr0_undef74 ) ) ( * UndefDef0undef75_x3^0 UndefCntr0_undef75 ) ) ( * UndefDef0undef101_x3^0 UndefCntr0_undef101 ) ) ( * UndefDef0undef102_x3^0 UndefCntr0_undef102 ) ) ( * UndefDef0undef103_x3^0 UndefCntr0_undef103 ) ) ) ) 0 ) ( = ( - UndefCntr0_undef105 ) 0 ) ) ) ) ))
(assert ( and ( >= lam22n0 0 ) ( >= lam22n1 0 ) ( >= lam22n2 0 ) ( > ( + ( * 1 lam22n0 ) ( * 1 lam22n1 ) ( * Nl5CT1 lam22n2 ) ( - 1 ) ) 0 ) ( = ( + ( * 1 lam22n0 ) ( * Nl5__const_7^01 lam22n2 ) ) 0 ) ( = ( + ( * ( - 1 ) lam22n1 ) ( * Nl5__const_8^01 lam22n2 ) ) 0 ) ( = ( * Nl5x0^01 lam22n2 ) 0 ) ( = ( * Nl5x1^01 lam22n2 ) 0 ) ( = ( + ( * ( - 1 ) lam22n0 ) ( * Nl5x2^01 lam22n2 ) ) 0 ) ( = ( * Nl5x3^01 lam22n2 ) 0 ) ))
(assert ( and ( <= ( + Nl5CT1 ( * Nl5__const_8^01 FV___const_8^0_2 ) ( * Nl5__const_7^01 FV___const_7^0_2 ) ( * Nl5x2^01 FV_x2^0_2 ) ( * Nl5x0^01 FV_x0^0_2 ) ( * Nl5x1^01 FV_x1^0_2 ) ( * Nl5x3^01 FV_x3^0_2 ) ) 0 ) ( and ( <= FV___const_8^0_2 0 ) ( <= ( + 1 FV___const_8^0_2 FV___const_7^0_2 ( * ( - 1 ) FV_x2^0_2 ) ) 0 ) ( <= ( + 1 FV___const_7^0_2 ( * ( - 1 ) FV_x2^0_2 ) ) 0 ) ( <= ( + 1 FV___const_7^0_2 ( * ( - 1 ) FV_undef103_2 ) ) 0 ) ( = ( + FV___const_8^0_2 FV_undef103_2 ( * ( - 1 ) FV_undef75_2 ) ) 0 ) ( = ( + FV_x0^0_2 ( * ( - 1 ) FV_undef73_2 ) ) 0 ) ( = ( + FV_x1^0_2 ( * ( - 1 ) FV_undef74_2 ) ) 0 ) ( = ( + FV_x2^0_2 ( * ( - 1 ) FV_undef75_2 ) ) 0 ) ( = ( + FV_undef73_2 ( * ( - 1 ) FV_undef101_2 ) ) 0 ) ( = ( + FV_undef74_2 ( * ( - 1 ) FV_undef102_2 ) ) 0 ) ) ))
(check-sat)
(exit)
